c
c This is glucose 2.1 --  based on MiniSAT (Many thanks to MiniSAT team)
c
c WARNING: for repeatability, setting FPU to use double precision
c ========================================[ Problem Statistics ]===========================================
c |                                                                                                       |
c |  Number of variables:         71160                                                                   |
c |  Number of clauses:          142083                                                                   |
c |  Parse time:                   0.04 s                                                                 |
c |                                                                                                       |
c ========================================[ MAGIC CONSTANTS ]==============================================
c | Constants are supposed to work well together :-)                                                      |
c | however, if you find better choices, please let us known...                                           |
c |-------------------------------------------------------------------------------------------------------|
c |                                |                                |                                     |
c | - Restarts:                    | - Reduce Clause DB:            | - Minimize Asserting:               |
c |   * LBD Queue    :     50      |   * First     :   4000         |    * size <  30                     |
c |   * Trail  Queue :   5000      |   * Inc       :    300         |    * lbd  <   6                     |
c |   * K            :   0.80      |   * Special   :   1000         |                                     |
c |   * R            :   1.40      |   * Protected :  (lbd)< 30     |                                     |
c |                                |                                |                                     |
c ==================================[ Search Statistics (every  10000 conflicts) ]=========================
c |                                                                                                       |
c |          RESTARTS           |          ORIGINAL         |              LEARNT              | Progress |
c |       NB   Blocked  Avg Cfc |    Vars  Clauses Literals |   Red   Learnts    LBD2  Removed |          |
c =========================================================================================================
c |       33         0      303 |   35328   136683   308294 |     1     8003      126     1996 | 50.354 % |
c |       72         0      277 |   35328   136683   308294 |     3     6955      207    13044 | 50.354 % |
c |      127         0      236 |   35328   136683   308294 |     3    16955      226    13044 | 50.354 % |
c |      216         0      185 |   35328   136683   308294 |     4    17678      233    22321 | 50.354 % |
c |      284         0      176 |   35317   136676   308273 |     5    15822      238    34130 | 50.370 % |
c =========================================================================================================
c restarts              : 293 (183 conflicts in avg)
c blocked restarts      : 0 (multiple: 0) 
c last block at restart : 0
c nb ReduceDB           : 5
c nb removed Clauses    : 34130
c nb learnts DL2        : 252
c nb learnts size 2     : 160
c nb learnts size 1     : 6
c conflicts             : 53790          (4419 /sec)
c decisions             : 107281         (0.00 % random) (8813 /sec)
c propagations          : 40579581       (3333638 /sec)
c conflict literals     : 2761586        (31.06 % deleted)
c nb reduced Clauses    : 171
c CPU time              : 12.1728 s
s UNSATISFIABLE
